Test: fpga12_9_sat.cnf
Options: -print-activity -no-inverting-opt -sym-var-bump
WARNING: for repeatability, setting FPU to use double precision
============================[ Problem Statistics ]=============================
|                                                                             |
|  Number of symmetries:           25                                         |
|  Number of invertingSyms:         0                                         |
|  Number of variables:           162                                         |
|  Number of clauses:             684                                         |
|  Parse time:                   0.00 s                                       |
|                                                                             |
============================[ Search Statistics ]==============================
| Conflicts |          ORIGINAL         |          LEARNT          | Progress |
|           |    Vars  Clauses Literals |    Limit  Clauses Lit/Cl |          |
===============================================================================
ActiveSyms: 25
ActiveSyms: 21
ActiveSyms: 18
ActiveSyms: 16
ActiveSyms: 15
ActiveSyms: 15
ActiveSyms: 16
ActiveSyms: 16
ActiveSyms: 15
ActiveSyms: 12
ActiveSyms: 12
ActiveSyms: 12
ActiveSyms: 10
ActiveSyms: 9
ActiveSyms: 9
ActiveSyms: 9
ActiveSyms: 9
ActiveSyms: 9
ActiveSyms: 9
ActiveSyms: 9
ActiveSyms: 9
ActiveSyms: 9
ActiveSyms: 10
ActiveSyms: 7
ActiveSyms: 9
ActiveSyms: 10
ActiveSyms: 8
ActiveSyms: 7
ActiveSyms: 8
ActiveSyms: 9
ActiveSyms: 11
ActiveSyms: 10
ActiveSyms: 9
ActiveSyms: 9
ActiveSyms: 8
ActiveSyms: 9
ActiveSyms: 9
ActiveSyms: 6
ActiveSyms: 6
ActiveSyms: 7
ActiveSyms: 7
ActiveSyms: 5
ActiveSyms: 6
ActiveSyms: 6
ActiveSyms: 5
ActiveSyms: 3
ActiveSyms: 4
ActiveSyms: 4
ActiveSyms: 4
ActiveSyms: 3
ActiveSyms: 5
ActiveSyms: 5
ActiveSyms: 6
ActiveSyms: 6
ActiveSyms: 5
ActiveSyms: 5
ActiveSyms: 6
ActiveSyms: 6
ActiveSyms: 8
ActiveSyms: 7
ActiveSyms: 8
ActiveSyms: 7
ActiveSyms: 7
ActiveSyms: 7
ActiveSyms: 8
ActiveSyms: 7
ActiveSyms: 7
ActiveSyms: 6
ActiveSyms: 6
ActiveSyms: 7
ActiveSyms: 7
ActiveSyms: 9
ActiveSyms: 11
ActiveSyms: 10
ActiveSyms: 12
ActiveSyms: 11
ActiveSyms: 15
ActiveSyms: 13
ActiveSyms: 11
ActiveSyms: 10
ActiveSyms: 9
ActiveSyms: 8
ActiveSyms: 7
ActiveSyms: 6
ActiveSyms: 6
ActiveSyms: 6
ActiveSyms: 6
ActiveSyms: 6
ActiveSyms: 6
ActiveSyms: 5
ActiveSyms: 3
ActiveSyms: 3
ActiveSyms: 3
ActiveSyms: 3
ActiveSyms: 3
ActiveSyms: 3
ActiveSyms: 3
ActiveSyms: 2
ActiveSyms: 2
ActiveSyms: 3
ActiveSyms: 5
ActiveSyms: 6
ActiveSyms: 15
ActiveSyms: 10
ActiveSyms: 13
ActiveSyms: 10
ActiveSyms: 9
ActiveSyms: 7
ActiveSyms: 9
ActiveSyms: 9
ActiveSyms: 9
ActiveSyms: 7
ActiveSyms: 8
ActiveSyms: 8
ActiveSyms: 8
ActiveSyms: 7
ActiveSyms: 8
ActiveSyms: 9
ActiveSyms: 7
ActiveSyms: 9
ActiveSyms: 7
ActiveSyms: 8
ActiveSyms: 8
ActiveSyms: 8
ActiveSyms: 8
ActiveSyms: 8
ActiveSyms: 7
ActiveSyms: 7
ActiveSyms: 7
ActiveSyms: 8
ActiveSyms: 8
ActiveSyms: 7
ActiveSyms: 8
ActiveSyms: 9
ActiveSyms: 11
ActiveSyms: 9
ActiveSyms: 7
ActiveSyms: 7
ActiveSyms: 8
ActiveSyms: 8
ActiveSyms: 8
ActiveSyms: 8
ActiveSyms: 8
ActiveSyms: 9
ActiveSyms: 7
ActiveSyms: 8
ActiveSyms: 9
ActiveSyms: 8
ActiveSyms: 9
ActiveSyms: 8
ActiveSyms: 7
ActiveSyms: 6
ActiveSyms: 7
ActiveSyms: 8
ActiveSyms: 7
ActiveSyms: 7
ActiveSyms: 7
ActiveSyms: 7
ActiveSyms: 7
ActiveSyms: 6
ActiveSyms: 7
ActiveSyms: 6
ActiveSyms: 7
ActiveSyms: 8
ActiveSyms: 9
ActiveSyms: 7
ActiveSyms: 6
ActiveSyms: 6
ActiveSyms: 6
ActiveSyms: 6
ActiveSyms: 5
ActiveSyms: 5
ActiveSyms: 5
ActiveSyms: 5
ActiveSyms: 5
ActiveSyms: 5
ActiveSyms: 5
ActiveSyms: 5
ActiveSyms: 4
ActiveSyms: 6
ActiveSyms: 5
ActiveSyms: 4
ActiveSyms: 4
ActiveSyms: 4
ActiveSyms: 3
ActiveSyms: 2
ActiveSyms: 2
ActiveSyms: 2
ActiveSyms: 2
ActiveSyms: 2
ActiveSyms: 3
ActiveSyms: 3
ActiveSyms: 4
ActiveSyms: 5
ActiveSyms: 4
ActiveSyms: 6
ActiveSyms: 5
ActiveSyms: 5
ActiveSyms: 4
ActiveSyms: 4
ActiveSyms: 5
ActiveSyms: 4
ActiveSyms: 4
ActiveSyms: 4
ActiveSyms: 5
ActiveSyms: 4
ActiveSyms: 4
ActiveSyms: 3
ActiveSyms: 4
ActiveSyms: 4
ActiveSyms: 3
ActiveSyms: 4
ActiveSyms: 5
ActiveSyms: 5
ActiveSyms: 5
ActiveSyms: 4
ActiveSyms: 3
ActiveSyms: 5
ActiveSyms: 5
ActiveSyms: 5
ActiveSyms: 6
ActiveSyms: 6
ActiveSyms: 6
ActiveSyms: 6
ActiveSyms: 5
ActiveSyms: 5
ActiveSyms: 4
ActiveSyms: 5
ActiveSyms: 5
ActiveSyms: 6
ActiveSyms: 7
ActiveSyms: 7
ActiveSyms: 7
ActiveSyms: 7
ActiveSyms: 6
ActiveSyms: 6
ActiveSyms: 6
ActiveSyms: 6
ActiveSyms: 6
ActiveSyms: 6
ActiveSyms: 6
ActiveSyms: 5
ActiveSyms: 5
ActiveSyms: 5
ActiveSyms: 5
ActiveSyms: 5
ActiveSyms: 7
ActiveSyms: 7
ActiveSyms: 7
ActiveSyms: 6
ActiveSyms: 7
ActiveSyms: 7
ActiveSyms: 7
ActiveSyms: 7
ActiveSyms: 7
ActiveSyms: 6
ActiveSyms: 6
ActiveSyms: 6
ActiveSyms: 6
ActiveSyms: 6
ActiveSyms: 6
ActiveSyms: 6
ActiveSyms: 7
ActiveSyms: 6
ActiveSyms: 5
ActiveSyms: 6
ActiveSyms: 7
ActiveSyms: 6
ActiveSyms: 6
ActiveSyms: 6
ActiveSyms: 5
ActiveSyms: 5
ActiveSyms: 5
ActiveSyms: 5
ActiveSyms: 5
ActiveSyms: 5
ActiveSyms: 5
ActiveSyms: 5
ActiveSyms: 6
ActiveSyms: 7
ActiveSyms: 7
ActiveSyms: 7
ActiveSyms: 7
ActiveSyms: 7
ActiveSyms: 7
ActiveSyms: 7
ActiveSyms: 9
ActiveSyms: 7
ActiveSyms: 7
ActiveSyms: 6
ActiveSyms: 5
ActiveSyms: 7
ActiveSyms: 7
ActiveSyms: 7
ActiveSyms: 6
ActiveSyms: 7
ActiveSyms: 7
ActiveSyms: 6
ActiveSyms: 6
ActiveSyms: 6
ActiveSyms: 6
ActiveSyms: 5
ActiveSyms: 5
ActiveSyms: 5
ActiveSyms: 5
ActiveSyms: 4
ActiveSyms: 4
ActiveSyms: 4
ActiveSyms: 6
ActiveSyms: 6
ActiveSyms: 5
ActiveSyms: 5
ActiveSyms: 5
ActiveSyms: 5
ActiveSyms: 6
ActiveSyms: 6
ActiveSyms: 6
ActiveSyms: 4
ActiveSyms: 4
ActiveSyms: 4
ActiveSyms: 4
ActiveSyms: 3
ActiveSyms: 4
ActiveSyms: 3
ActiveSyms: 3
ActiveSyms: 3
ActiveSyms: 3
ActiveSyms: 3
ActiveSyms: 3
ActiveSyms: 4
ActiveSyms: 4
ActiveSyms: 4
ActiveSyms: 4
ActiveSyms: 5
ActiveSyms: 5
ActiveSyms: 5
ActiveSyms: 5
ActiveSyms: 6
ActiveSyms: 6
ActiveSyms: 5
ActiveSyms: 3
ActiveSyms: 4
ActiveSyms: 4
ActiveSyms: 4
ActiveSyms: 4
ActiveSyms: 4
ActiveSyms: 4
ActiveSyms: 4
ActiveSyms: 4
ActiveSyms: 4
ActiveSyms: 4
ActiveSyms: 5
ActiveSyms: 4
ActiveSyms: 4
ActiveSyms: 4
ActiveSyms: 4
ActiveSyms: 5
ActiveSyms: 5
ActiveSyms: 5
ActiveSyms: 4
ActiveSyms: 5
ActiveSyms: 4
|       100 |     162      684     1836 |      250      182     35 |  0.004 % |
ActiveSyms: 3
ActiveSyms: 25
ActiveSyms: 21
ActiveSyms: 19
ActiveSyms: 17
ActiveSyms: 17
ActiveSyms: 15
ActiveSyms: 16
ActiveSyms: 14
ActiveSyms: 13
ActiveSyms: 14
ActiveSyms: 14
ActiveSyms: 12
ActiveSyms: 12
ActiveSyms: 12
ActiveSyms: 10
ActiveSyms: 8
ActiveSyms: 9
ActiveSyms: 8
ActiveSyms: 9
ActiveSyms: 6
ActiveSyms: 6
ActiveSyms: 7
ActiveSyms: 7
ActiveSyms: 7
ActiveSyms: 7
ActiveSyms: 6
ActiveSyms: 6
ActiveSyms: 6
ActiveSyms: 6
ActiveSyms: 8
ActiveSyms: 8
ActiveSyms: 5
ActiveSyms: 2
ActiveSyms: 3
ActiveSyms: 2
ActiveSyms: 3
ActiveSyms: 4
ActiveSyms: 4
ActiveSyms: 4
ActiveSyms: 4
ActiveSyms: 5
ActiveSyms: 4
ActiveSyms: 4
ActiveSyms: 7
ActiveSyms: 5
ActiveSyms: 6
ActiveSyms: 7
ActiveSyms: 6
ActiveSyms: 6
ActiveSyms: 6
ActiveSyms: 6
ActiveSyms: 6
ActiveSyms: 4
ActiveSyms: 5
ActiveSyms: 4
ActiveSyms: 3
ActiveSyms: 2
ActiveSyms: 2
ActiveSyms: 5
ActiveSyms: 4
ActiveSyms: 4
ActiveSyms: 5
ActiveSyms: 4
ActiveSyms: 4
ActiveSyms: 4
ActiveSyms: 4
ActiveSyms: 4
ActiveSyms: 4
ActiveSyms: 4
ActiveSyms: 4
ActiveSyms: 3
ActiveSyms: 2
ActiveSyms: 2
ActiveSyms: 4
ActiveSyms: 4
ActiveSyms: 4
ActiveSyms: 4
ActiveSyms: 4
ActiveSyms: 4
ActiveSyms: 3
ActiveSyms: 3
ActiveSyms: 2
ActiveSyms: 2
ActiveSyms: 5
ActiveSyms: 4
ActiveSyms: 3
ActiveSyms: 5
ActiveSyms: 5
ActiveSyms: 5
ActiveSyms: 5
ActiveSyms: 3
ActiveSyms: 4
ActiveSyms: 8
ActiveSyms: 7
ActiveSyms: 6
ActiveSyms: 7
ActiveSyms: 6
ActiveSyms: 6
ActiveSyms: 6
ActiveSyms: 6
ActiveSyms: 3
ActiveSyms: 3
ActiveSyms: 2
ActiveSyms: 1
ActiveSyms: 2
ActiveSyms: 3
ActiveSyms: 2
ActiveSyms: 1
ActiveSyms: 4
ActiveSyms: 3
ActiveSyms: 2
ActiveSyms: 4
ActiveSyms: 3
ActiveSyms: 2
ActiveSyms: 3
ActiveSyms: 2
ActiveSyms: 3
ActiveSyms: 2
ActiveSyms: 3
ActiveSyms: 3
ActiveSyms: 3
ActiveSyms: 2
ActiveSyms: 2
ActiveSyms: 4
ActiveSyms: 4
ActiveSyms: 4
ActiveSyms: 2
ActiveSyms: 1
ActiveSyms: 1
ActiveSyms: 1
ActiveSyms: 0
ActiveSyms: 0
===============================================================================
restarts              : 2
conflicts             : 114            (28500 /sec)
symconflicts          : 17             (4250 /sec)
decisions             : 380            (0.00 % random) (95000 /sec)
propagations          : 2369           (592250 /sec)
sympropagations       : 94             (23500 /sec)
conflict literals     : 3834           (3.11 % deleted)
literals     : 3834           (3.11 % deleted)

HEURISTIC USAGES
random                : 0           
activity w/ lookahead : 0           
activity no lookahead : 0           
original sp           : 379         
sym count             : 0           

Memory used           : 5.00 MB
CPU time              : 0.004 s

SATISFIABLE
